; benchmark generated from python API
(set-info :status unknown)
(declare-fun W_S1_V1 () Bool)
(declare-fun DISJ_W_S1_R_S1 () Bool)
(declare-fun R_E1_V6 () Bool)
(declare-fun W_S1_V6 () Bool)
(declare-fun R_E1_V4 () Bool)
(declare-fun W_S1_V4 () Bool)
(declare-fun W_S1_V3 () Bool)
(declare-fun R_S1_V6 () Bool)
(declare-fun R_S1_V4 () Bool)
(declare-fun R_S1_V5 () Bool)
(declare-fun R_S1_V2 () Bool)
(declare-fun R_S1_V3 () Bool)
(declare-fun R_S1_V1 () Bool)
(declare-fun R_E2_V1 () Bool)
(declare-fun R_E1_V2 () Bool)
(declare-fun R_E1_V5 () Bool)
(declare-fun R_E2_V6 () Bool)
(declare-fun R_E2_V4 () Bool)
(declare-fun R_E2_V5 () Bool)
(declare-fun DISJ_W_S1_R_E2 () Bool)
(declare-fun W_S1_V5 () Bool)
(declare-fun W_S1_V2 () Bool)
(declare-fun R_E1_V3 () Bool)
(declare-fun R_E1_V1 () Bool)
(declare-fun R_E2_V3 () Bool)
(declare-fun DISJ_W_S1_R_E1 () Bool)
(assert
 (let (($x552 (not DISJ_W_S1_R_S1)))
 (let (($x2327 (not (and W_S1_V6 R_E1_V6))))
 (let (($x2202 (not (and W_S1_V4 R_E1_V4))))
 (let (($x3461 (forall ((V2_0 Int) )(forall ((V5_0 Int) )(forall ((V4_0 Int) )(forall ((V6_0 Int) )(forall ((MW_S1_V1 Bool) )(forall ((MW_S1_V3 Bool) )(forall ((MW_S1_V2 Bool) )(forall ((MW_S1_V5 Bool) )(forall ((MW_S1_V4 Bool) )(forall ((MW_S1_V6 Bool) )(forall ((S1_V1_!7162 Int) )(forall ((S1_V1_!7168 Int) )(forall ((S1_V1_!7177 Int) )(forall ((S1_V1_!7184 Int) )(forall ((S1_V3_!7163 Int) )(forall ((S1_V3_!7169 Int) )(forall ((S1_V3_!7178 Int) )(forall ((S1_V3_!7185 Int) )(forall ((S1_V2_!7164 Int) )(forall ((S1_V2_!7170 Int) )(forall ((S1_V2_!7179 Int) )(forall ((S1_V2_!7186 Int) )(forall ((E1_!7159 Int) )(forall ((E1_!7174 Int) )(forall ((E1_!7176 Int) )(forall ((E1_!7183 Int) )(forall ((S1_V5_!7165 Int) )(forall ((S1_V5_!7171 Int) )(forall ((S1_V5_!7180 Int) )(forall ((S1_V5_!7187 Int) )(forall ((E2_!7160 Int) )(forall ((E2_!7161 Int) )(forall ((E2_!7175 Int) )(forall ((S1_V4_!7166 Int) )(forall ((S1_V4_!7172 Int) )(forall ((S1_V4_!7181 Int) )(forall ((S1_V4_!7188 Int) )(forall ((S1_V6_!7167 Int) )(forall ((S1_V6_!7173 Int) )(forall ((S1_V6_!7182 Int) )(forall ((S1_V6_!7189 Int) )(let ((?x960 (ite MW_S1_V3 S1_V3_!7178 E2_!7175)))
 (let ((?x4413 (+ 1 ?x960)))
 (let ((?x5954 (ite MW_S1_V3 S1_V3_!7185 ?x4413)))
 (let ((?x1894 (ite MW_S1_V3 S1_V3_!7163 E2_!7161)))
 (let ((?x3002 (+ 1 ?x1894)))
 (let ((?x1161 (ite MW_S1_V3 S1_V3_!7169 ?x3002)))
 (let (($x1828 (and (= (ite MW_S1_V1 S1_V1_!7168 E1_!7159) (ite MW_S1_V1 S1_V1_!7184 E1_!7183)) (= ?x1161 ?x5954) (= (ite MW_S1_V2 S1_V2_!7170 V2_0) (ite MW_S1_V2 S1_V2_!7186 V2_0)) (= (ite MW_S1_V5 S1_V5_!7171 V5_0) (ite MW_S1_V5 S1_V5_!7187 V5_0)) (= (ite MW_S1_V4 S1_V4_!7172 V4_0) (ite MW_S1_V4 S1_V4_!7188 V4_0)) (= (ite MW_S1_V6 S1_V6_!7173 V6_0) (ite MW_S1_V6 S1_V6_!7189 V6_0)))))
 (let (($x5783 (and (not (<= V4_0 E2_!7160)) (not (<= V2_0 E1_!7159)) (not (<= V4_0 E2_!7161)) (not (<= (ite MW_S1_V4 S1_V4_!7166 V4_0) ?x3002)) (>= ?x1161 (+ (- 1) (ite MW_S1_V4 S1_V4_!7172 V4_0))) (>= (ite MW_S1_V1 S1_V1_!7168 E1_!7159) (+ (- 1) (ite MW_S1_V2 S1_V2_!7170 V2_0))) (not (<= V2_0 E1_!7174)) (not (<= V4_0 E2_!7175)) (not (<= V2_0 E1_!7176)) (>= (ite MW_S1_V1 S1_V1_!7177 E1_!7176) (+ (- 1) (ite MW_S1_V2 S1_V2_!7179 V2_0))) (not (<= (ite MW_S1_V4 S1_V4_!7181 V4_0) ?x4413)) (not (<= (ite MW_S1_V2 S1_V2_!7179 V2_0) E1_!7183)) (>= (ite MW_S1_V1 S1_V1_!7184 E1_!7183) (+ (- 1) (ite MW_S1_V2 S1_V2_!7186 V2_0))) (>= ?x5954 (+ (- 1) (ite MW_S1_V4 S1_V4_!7188 V4_0))))))
 (let (($x1305 (= S1_V6_!7189 S1_V6_!7173)))
 (let (($x2076 (and (or (not R_S1_V1) (= E1_!7183 (ite MW_S1_V1 S1_V1_!7162 E1_!7159))) (or (not R_S1_V3) (= ?x960 ?x1894)) (or (not R_S1_V2) (= (ite MW_S1_V2 S1_V2_!7179 V2_0) (ite MW_S1_V2 S1_V2_!7164 V2_0))) (or (not R_S1_V5) (= (ite MW_S1_V5 S1_V5_!7180 V5_0) (ite MW_S1_V5 S1_V5_!7165 V5_0))) (or (not R_S1_V4) (= (ite MW_S1_V4 S1_V4_!7181 V4_0) (ite MW_S1_V4 S1_V4_!7166 V4_0))) (or (not R_S1_V6) (= (ite MW_S1_V6 S1_V6_!7182 V6_0) (ite MW_S1_V6 S1_V6_!7167 V6_0))))))
 (let (($x944 (not $x2076)))
 (let (($x2826 (= S1_V6_!7182 S1_V6_!7189)))
 (let ((?x5793 (ite MW_S1_V6 S1_V6_!7182 V6_0)))
 (let (($x3304 (= V6_0 ?x5793)))
 (let (($x1546 (not R_S1_V6)))
 (let (($x4600 (or $x1546 $x3304)))
 (let ((?x2785 (ite MW_S1_V4 S1_V4_!7181 V4_0)))
 (let (($x2392 (= V4_0 ?x2785)))
 (let (($x5764 (not R_S1_V4)))
 (let (($x1052 (or $x5764 $x2392)))
 (let (($x2008 (not R_S1_V5)))
 (let (($x2424 (or $x2008 (= V5_0 (ite MW_S1_V5 S1_V5_!7180 V5_0)))))
 (let ((?x4742 (ite MW_S1_V2 S1_V2_!7179 V2_0)))
 (let (($x3666 (= V2_0 ?x4742)))
 (let (($x2049 (not R_S1_V2)))
 (let (($x2481 (or $x2049 $x3666)))
 (let (($x48 (and (or (not R_S1_V1) (= E1_!7176 E1_!7183)) (or (not R_S1_V3) (= E2_!7175 ?x4413)) $x2481 $x2424 $x1052 $x4600)))
 (let (($x3104 (not $x48)))
 (let (($x5237 (= S1_V6_!7182 S1_V6_!7173)))
 (let (($x754 (or $x1546 (= V6_0 (ite MW_S1_V6 S1_V6_!7167 V6_0)))))
 (let (($x4693 (or $x5764 (= V4_0 (ite MW_S1_V4 S1_V4_!7166 V4_0)))))
 (let (($x2674 (or $x2008 (= V5_0 (ite MW_S1_V5 S1_V5_!7165 V5_0)))))
 (let (($x1781 (or $x2049 (= V2_0 (ite MW_S1_V2 S1_V2_!7164 V2_0)))))
 (let (($x3361 (and (or (not R_S1_V1) (= E1_!7176 (ite MW_S1_V1 S1_V1_!7162 E1_!7159))) (or (not R_S1_V3) (= E2_!7175 ?x3002)) $x1781 $x2674 $x4693 $x754)))
 (let (($x3355 (not $x3361)))
 (let (($x1893 (and (or (not R_S1_V1) (= E1_!7159 E1_!7183)) (or (not R_S1_V3) (= E2_!7161 ?x4413)) $x2481 $x2424 $x1052 $x4600)))
 (let (($x3525 (not $x1893)))
 (let (($x3038 (and (or (not R_S1_V1) (= E1_!7159 E1_!7176)) (or (not R_S1_V3) (= E2_!7161 E2_!7175)))))
 (let (($x2469 (not $x3038)))
 (let (($x5924 (and (or (not R_S1_V1) (= E1_!7159 (ite MW_S1_V1 S1_V1_!7162 E1_!7159))) (or (not R_S1_V3) (= E2_!7161 ?x3002)) $x1781 $x2674 $x4693 $x754)))
 (let (($x3899 (not $x5924)))
 (let (($x5778 (= S1_V4_!7188 S1_V4_!7181)))
 (let (($x2612 (= ?x5793 V6_0)))
 (let (($x5867 (or $x1546 $x2612)))
 (let (($x1268 (= ?x2785 V4_0)))
 (let (($x2287 (or $x5764 $x1268)))
 (let (($x6022 (or $x2008 (= (ite MW_S1_V5 S1_V5_!7180 V5_0) V5_0))))
 (let (($x5812 (= ?x4742 V2_0)))
 (let (($x3698 (or $x2049 $x5812)))
 (let (($x3262 (and (or (not R_S1_V1) (= E1_!7183 E1_!7176)) (or (not R_S1_V3) (= ?x960 (+ (- 1) E2_!7175))) $x3698 $x6022 $x2287 $x5867)))
 (let (($x5045 (not $x3262)))
 (let (($x3236 (and (or (not R_S1_V1) (= E1_!7183 E1_!7159)) (or (not R_S1_V3) (= ?x960 (+ (- 1) E2_!7161))) $x3698 $x6022 $x2287 $x5867)))
 (let (($x50 (not $x3236)))
 (let (($x3073 (and (or (not R_S1_V1) (= E1_!7176 E1_!7159)) (or (not R_S1_V3) (= E2_!7175 E2_!7161)))))
 (let (($x28 (not $x3073)))
 (let (($x1311 (or $x1546 (= (ite MW_S1_V6 S1_V6_!7167 V6_0) V6_0))))
 (let (($x3716 (or $x5764 (= (ite MW_S1_V4 S1_V4_!7166 V4_0) V4_0))))
 (let (($x1883 (or $x2008 (= (ite MW_S1_V5 S1_V5_!7165 V5_0) V5_0))))
 (let (($x2211 (or $x2049 (= (ite MW_S1_V2 S1_V2_!7164 V2_0) V2_0))))
 (let (($x1454 (and (or (not R_S1_V1) (= (ite MW_S1_V1 S1_V1_!7162 E1_!7159) E1_!7159)) (or (not R_S1_V3) (= ?x1894 (+ (- 1) E2_!7161))) $x2211 $x1883 $x3716 $x1311)))
 (let (($x3246 (not $x1454)))
 (let (($x1533 (= S1_V5_!7171 S1_V5_!7180)))
 (let (($x4023 (and (or (not R_S1_V1) (= (ite MW_S1_V1 S1_V1_!7162 E1_!7159) E1_!7176)) (or (not R_S1_V3) (= ?x1894 (+ (- 1) E2_!7175))) $x2211 $x1883 $x3716 $x1311)))
 (let (($x3456 (not $x4023)))
 (let (($x3744 (= E1_!7183 E1_!7176)))
 (let (($x2027 (and (or (not R_E1_V2) $x5812) (or (not R_E1_V4) $x1268) (or (not R_E1_V6) $x2612))))
 (let (($x2433 (not $x2027)))
 (let (($x92 (= E1_!7174 E1_!7176)))
 (let (($x3248 (= E1_!7159 E1_!7183)))
 (let (($x5238 (and (or (not R_E1_V2) $x3666) (or (not R_E1_V4) $x2392) (or (not R_E1_V6) $x3304))))
 (let (($x5832 (= E1_!7159 E1_!7176)))
 (let (($x1319 (and (or (not R_S1_V1) (= (ite MW_S1_V1 S1_V1_!7162 E1_!7159) E1_!7183)) (or (not R_S1_V3) (= ?x1894 ?x960)) (or $x2049 (= (ite MW_S1_V2 S1_V2_!7164 V2_0) ?x4742)) (or $x2008 (= (ite MW_S1_V5 S1_V5_!7165 V5_0) (ite MW_S1_V5 S1_V5_!7180 V5_0))) (or $x5764 (= (ite MW_S1_V4 S1_V4_!7166 V4_0) ?x2785)) (or $x1546 (= (ite MW_S1_V6 S1_V6_!7167 V6_0) ?x5793)))))
 (let (($x1115 (and (or $x3899 (= S1_V1_!7162 S1_V1_!7168)) (or $x3525 (= S1_V1_!7162 S1_V1_!7184)) (or $x28 (= S1_V1_!7177 S1_V1_!7162)) (or $x3355 (= S1_V1_!7177 S1_V1_!7168)) (or $x3104 (= S1_V1_!7177 S1_V1_!7184)) (or $x944 (= S1_V1_!7184 S1_V1_!7168)) (or $x3899 (= S1_V3_!7163 S1_V3_!7169)) (or $x2469 (= S1_V3_!7163 S1_V3_!7178)) (or $x3456 (= S1_V3_!7169 S1_V3_!7178)) (or $x50 (= S1_V3_!7185 S1_V3_!7163)) (or $x944 (= S1_V3_!7185 S1_V3_!7169)) (or $x5045 (= S1_V3_!7185 S1_V3_!7178)) (or $x3899 (= S1_V2_!7164 S1_V2_!7170)) (or $x2469 (= S1_V2_!7164 S1_V2_!7179)) (or $x3525 (= S1_V2_!7164 S1_V2_!7186)) (or $x3456 (= S1_V2_!7170 S1_V2_!7179)) (or (not $x1319) (= S1_V2_!7170 S1_V2_!7186)) (or $x5045 (= S1_V2_!7186 S1_V2_!7179)) (= E1_!7159 E1_!7174) $x5832 (or (not $x5238) $x3248) $x92 (or $x2433 (= E1_!7183 E1_!7174)) (or $x2433 $x3744) (or $x2469 (= S1_V5_!7165 S1_V5_!7180)) (or $x3246 (= S1_V5_!7171 S1_V5_!7165)) (or $x3456 $x1533) (or $x50 (= S1_V5_!7187 S1_V5_!7165)) (or $x944 (= S1_V5_!7187 S1_V5_!7171)) (or $x5045 (= S1_V5_!7187 S1_V5_!7180)) (= E2_!7160 E2_!7161) (or (not (or (not R_E2_V1) (= E1_!7174 E1_!7159))) (= E2_!7175 E2_!7160)) (or (not (or (not R_E2_V1) (= E1_!7174 E1_!7159))) (= E2_!7175 E2_!7161)) (or $x3246 (= S1_V4_!7172 S1_V4_!7166)) (or $x28 (= S1_V4_!7181 S1_V4_!7166)) (or $x3355 (= S1_V4_!7181 S1_V4_!7172)) (or $x50 (= S1_V4_!7188 S1_V4_!7166)) (or $x944 (= S1_V4_!7188 S1_V4_!7172)) (or $x5045 $x5778) (or $x3899 (= S1_V6_!7167 S1_V6_!7173)) (or $x2469 (= S1_V6_!7167 S1_V6_!7182)) (or $x3525 (= S1_V6_!7167 S1_V6_!7189)) (or $x3355 $x5237) (or $x3104 $x2826) (or $x944 $x1305) (or (not MW_S1_V1) W_S1_V1) (or (not MW_S1_V3) W_S1_V3) (not MW_S1_V2) (or (not MW_S1_V4) W_S1_V4) (or (not MW_S1_V6) W_S1_V6))))
 (or (not $x1115) (not $x5783) $x1828)))))))))))))))))))))))))))))))))))))))))))))))))))))))))))))))))))))))))))
 )
 )
 )
 )
 )
 )
 )
 )
 )
 )
 )
 )
 )
 )
 )
 )
 )
 )
 )
 )
 )
 )
 )
 )
 )
 )
 )
 )
 )
 )
 )
 )
 )
 )
 )
 )
 )
 )
 )
 )
 ))
 (let (($x6083 (not R_E1_V5)))
 (let (($x1238 (and W_S1_V6 R_S1_V6)))
 (let (($x2163 (and W_S1_V4 R_S1_V4)))
 (let (($x3386 (and W_S1_V3 R_S1_V3)))
 (let (($x2750 (and W_S1_V1 R_S1_V1)))
 (let (($x474 (= DISJ_W_S1_R_S1 (not (or $x2750 $x3386 R_S1_V5 $x2163 $x1238)))))
 (let (($x5100 (and W_S1_V6 R_E2_V6)))
 (let (($x2282 (and W_S1_V4 R_E2_V4)))
 (let (($x818 (and W_S1_V1 R_E2_V1)))
 (let (($x862 (= DISJ_W_S1_R_E2 (not (or $x818 R_E2_V5 $x2282 $x5100)))))
 (let (($x4905 (or DISJ_W_S1_R_S1 (not W_S1_V1) (and (not W_S1_V3) (not W_S1_V4)) (and (not R_S1_V1) (not R_S1_V3) (not W_S1_V4)))))
 (let (($x3918 (not W_S1_V2)))
 (let (($x6077 (not R_E1_V3)))
 (let (($x786 (not R_E1_V1)))
 (let (($x1146 (not R_E2_V3)))
 (let (($x1206 (and DISJ_W_S1_R_E1 $x1146 $x786 $x6077 $x3918 $x4905 W_S1_V5 $x862 $x474 $x6083 $x3461 $x2202 $x2327)))
 (and $x1206 $x552 W_S1_V1))))))))))))))))))))))
(check-sat)
